NAME : input100_8.txt .out.tour
COMMENT : Tour for input100_8.txt .tsp (Length 1047.57)
TYPE : TOUR
DIMENSION : 100
TOUR_SECTION
1
16
31
22
48
13
33
86
40
42
88
45
14
32
64
52
6
93
65
24
54
59
58
92
30
73
49
26
69
74
66
55
94
43
98
7
38
85
39
62
51
91
29
90
83
11
60
77
3
15
17
10
28
76
41
100
20
70
78
9
56
36
67
63
25
37
44
99
96
35
23
71
81
61
72
8
75
97
27
89
47
53
46
12
68
21
5
19
95
80
87
57
4
18
2
79
84
82
50
34
1
